10	5
0	5	4	2	3	1	5
1	5	7	8	9	6	10
2	1	7
3	2	8	10
4	2	7	9
5	1	8
6	1	11
7	1	11
8	1	11
9	1	11
10	1	11
11	0
0	0	0	0	0	0	0
1	1	5	5	4	0	3
2	9	0	4	2	5	0
3	7	5	1	0	5	0
4	8	1	1	2	1	2
5	4	0	1	3	2	0
6	5	2	1	4	0	2
7	5	5	3	3	4	2
8	4	0	0	5	0	0
9	3	5	1	1	1	2
10	2	5	4	1	4	5
11	0	0	0	0	0	0
9	9	8	9	6
